Reading model...
...model read.
creating competitive generators file...
...competitive generators recorded.
Loading data...
.. real-time data read.
Compiling instance...
1200.0
100.0
1633.9153319999998
136.15961099999998
...instance created.
Creating Offer Mitigation (model will solve as dispatch if TRUE)...
...storage offer mitigation file created
Converting model to MPEC...
...converted
NOTE: initial MIP solve with only storage competitive to get feasible solution
Solving...

Welcome to IBM(R) ILOG(R) CPLEX(R) Interactive Optimizer 12.9.0.0
  with Simplex, Mixed Integer & Barrier Optimizers
5725-A06 5725-A29 5724-Y48 5724-Y49 5724-Y54 5724-Y55 5655-Y21
Copyright IBM Corp. 1988, 2019.  All Rights Reserved.

Type 'help' for a list of available commands.
Type 'help' followed by a command name for more
information on commands.

CPLEX> Logfile 'cplex.log' closed.
Logfile 'C:\Users\llavin\Desktop\test826\logs\tmp_8k63wyg.cplex.log' open.
CPLEX> New value for parallel optimization mode: -1
CPLEX> New value for mixed integer optimality gap tolerance: 0.02
CPLEX> New value for emphasis for MIP optimization: 1
CPLEX> New value for integrality tolerance: 1e-12
CPLEX> New value for deterministic time limit in ticks: 50000
CPLEX> Problem 'C:\Users\llavin\Desktop\test826\logs\tmp87ku2fj4.pyomo.lp' read.
Read time = 0.53 sec. (28.53 ticks)
CPLEX> Problem name         : C:\Users\llavin\Desktop\test826\logs\tmp87ku2fj4.pyomo.lp
Objective sense      : Maximize
Variables            :  107783  [Nneg: 1,  Box: 44058,  Free: 8928,
                                 Binary: 54796]
Objective nonzeros   :   18387
Linear constraints   :  246901  [Less: 82864,  Greater: 118424,  Equal: 45613]
  Nonzeros           :  619133
  RHS nonzeros       :  135843

Variables            : Min LB: -5000.000        Max UB: 1000000.       
Objective nonzeros   : Min   : 0.008333333      Max   : 208.3333       
Linear constraints   :
  Nonzeros           : Min   : 0.008333333      Max   : 1000000.       
  RHS nonzeros       : Min   : 0.008333333      Max   : 1000000.       
CPLEX> CPXPARAM_Parallel                                -1
CPXPARAM_Emphasis_MIP                            1
CPXPARAM_DetTimeLimit                            50000
CPXPARAM_MIP_Tolerances_MIPGap                   0.02
CPXPARAM_MIP_Tolerances_Integrality              9.9999999999999998e-13
Tried aggregator 3 times.
MIP Presolve eliminated 176826 rows and 37372 columns.
MIP Presolve added 7020 rows and 0 columns.
MIP Presolve modified 53022 coefficients.
Aggregator did 26008 substitutions.
Reduced MIP has 51087 rows, 43507 columns, and 151649 nonzeros.
Reduced MIP has 17225 binaries, 0 generals, 0 SOSs, and 0 indicators.
Presolve time = 0.63 sec. (376.60 ticks)
Probing fixed 830 vars, tightened 14815 bounds.
Probing time = 0.39 sec. (18.74 ticks)
Tried aggregator 2 times.
MIP Presolve eliminated 1851 rows and 1702 columns.
MIP Presolve modified 10084 coefficients.
Aggregator did 96 substitutions.
Reduced MIP has 49140 rows, 41709 columns, and 140369 nonzeros.
Reduced MIP has 16395 binaries, 0 generals, 0 SOSs, and 0 indicators.
Presolve time = 0.28 sec. (246.84 ticks)
Probing fixed 0 vars, tightened 3669 bounds.
Probing time = 0.52 sec. (18.42 ticks)
Clique table members: 80166.
MIP emphasis: integer feasibility.
MIP search method: dynamic search.
Parallel mode: opportunistic, using up to 32 threads.
Root relaxation solution time = 1.39 sec. (2531.60 ticks)

        Nodes                                         Cuts/
   Node  Left     Objective  IInf  Best Integer    Best Bound    ItCnt     Gap

      0     0     2654.3420   903                   2654.3420     8417         
      0     0     2654.3420    16                Flowcuts: 24     8472         
      0     0     2654.2797    16                     Cuts: 8     8482         
      0    14     2653.1475     9                   2654.0435     8499         
Elapsed time = 7.73 sec. (5030.32 ticks, tree = 0.03 MB, solutions = 0)
    401    66     2652.9452     8                   2653.9656     8627         
*   522    94      integral     0     2651.1466     2653.9656     8716    0.11%
*   544    66      integral     0     2651.2075     2653.9656     8633    0.10%
*   573+   71                         2651.5805     2653.9656             0.09%

Cover cuts applied:  1
Flow cuts applied:  19

Root node processing (before b&c):
  Real time             =    5.69 sec. (5003.92 ticks)
Parallel b&c, 32 threads:
  Real time             =    3.83 sec. (476.12 ticks)
  Sync time (average)   =    0.54 sec.
  Wait time (average)   =    0.00 sec.
                          ------------
Total (root+branch&cut) =    9.52 sec. (5480.04 ticks)

Solution pool: 12 solutions saved.

MIP - Integer optimal, tolerance (0.02/1e-06):  Objective =  2.6515805426e+03
Current MIP best bound =  2.6539655902e+03 (gap = 2.38505, 0.09%)
Solution time =    9.55 sec.  Iterations = 10357  Nodes = 581 (338)
Deterministic time = 5480.35 ticks  (574.04 ticks/sec)

CPLEX> Incumbent solution written to file 'C:\Users\llavin\Desktop\test826\logs\tmp_51wznmv.cplex.sol'.
CPLEX> NOTE: no warmstart specified for MIP iteration, default behavior is true
NOTE: resolving with all competitive generators using storage-only solution to warmstart
Solving...

Welcome to IBM(R) ILOG(R) CPLEX(R) Interactive Optimizer 12.9.0.0
  with Simplex, Mixed Integer & Barrier Optimizers
5725-A06 5725-A29 5724-Y48 5724-Y49 5724-Y54 5724-Y55 5655-Y21
Copyright IBM Corp. 1988, 2019.  All Rights Reserved.

Type 'help' for a list of available commands.
Type 'help' followed by a command name for more
information on commands.

CPLEX> Logfile 'cplex.log' closed.
Logfile 'C:\Users\llavin\Desktop\test826\logs\tmp9xp6w72x.cplex.log' open.
CPLEX> New value for parallel optimization mode: -1
CPLEX> New value for mixed integer optimality gap tolerance: 0.02
CPLEX> New value for emphasis for MIP optimization: 1
CPLEX> New value for integrality tolerance: 1e-12
CPLEX> New value for deterministic time limit in ticks: 50000
CPLEX> Problem 'C:\Users\llavin\Desktop\test826\logs\tmptxwwq6up.pyomo.lp' read.
Read time = 0.53 sec. (28.58 ticks)
CPLEX> MIP start file 'C:\Users\llavin\Desktop\test826\logs\tmpfo_zw0zf.cplex.mst' read.
CPLEX> Problem name         : C:\Users\llavin\Desktop\test826\logs\tmptxwwq6up.pyomo.lp
Objective sense      : Maximize
Variables            :  109223  [Nneg: 1,  Box: 45498,  Free: 8928,
                                 Binary: 54796]
Objective nonzeros   :   19779
Linear constraints   :  246901  [Less: 82864,  Greater: 118424,  Equal: 45613]
  Nonzeros           :  619133
  RHS nonzeros       :  135843

Variables            : Min LB: -5000.000        Max UB: 1000000.       
Objective nonzeros   : Min   : 0.008333333      Max   : 208.3333       
Linear constraints   :
  Nonzeros           : Min   : 0.008333333      Max   : 1000000.       
  RHS nonzeros       : Min   : 0.008333333      Max   : 1000000.       
CPLEX> CPXPARAM_Parallel                                -1
CPXPARAM_Emphasis_MIP                            1
CPXPARAM_DetTimeLimit                            50000
CPXPARAM_MIP_Tolerances_MIPGap                   0.02
CPXPARAM_MIP_Tolerances_Integrality              9.9999999999999998e-13
Warning:  No solution found from 1 MIP starts.
Retaining values of one MIP start for possible repair.
Tried aggregator 3 times.
MIP Presolve eliminated 176826 rows and 38812 columns.
MIP Presolve added 7020 rows and 0 columns.
MIP Presolve modified 53022 coefficients.
Aggregator did 26008 substitutions.
Reduced MIP has 51087 rows, 43507 columns, and 151649 nonzeros.
Reduced MIP has 17225 binaries, 0 generals, 0 SOSs, and 0 indicators.
Presolve time = 0.64 sec. (377.35 ticks)
Probing fixed 830 vars, tightened 14815 bounds.
Probing time = 0.44 sec. (18.74 ticks)
Tried aggregator 2 times.
MIP Presolve eliminated 1851 rows and 1702 columns.
MIP Presolve modified 10084 coefficients.
Aggregator did 96 substitutions.
Reduced MIP has 49140 rows, 41709 columns, and 140369 nonzeros.
Reduced MIP has 16395 binaries, 0 generals, 0 SOSs, and 0 indicators.
Presolve time = 0.28 sec. (246.85 ticks)
Probing fixed 0 vars, tightened 3669 bounds.
Probing time = 0.55 sec. (18.42 ticks)
Clique table members: 80166.
MIP emphasis: integer feasibility.
MIP search method: dynamic search.
Parallel mode: opportunistic, using up to 32 threads.
Root relaxation solution time = 1.61 sec. (2669.02 ticks)

        Nodes                                         Cuts/
   Node  Left     Objective  IInf  Best Integer    Best Bound    ItCnt     Gap

      0     0    20844.0754  1403                  20844.0754    10778         
      0     0    20827.5845   202                   Cuts: 225    11023         
      0     0    20819.4815   196                   Cuts: 126    11146         
      0     0    20807.2278   196                    Cuts: 68    11209         
Repair heuristic found nothing.
      0    17    20766.8249   162                    Cuts: 23    11447         
Elapsed time = 10.89 sec. (5540.97 ticks, tree = 0.06 MB, solutions = 0)
    301   151    20713.7878   154                  20790.1119    13084         
    705   355    20740.1712   143                  20790.1119    15913         
   1122   996    20650.0200   142                  20790.1119    22329         
   1516  1169    20488.7547    94                  20790.1119    23786         
   1851  1346    20664.9102    87                  20790.1119    25316         
   2194  1568    19959.3082   121                  20790.1119    27577         
   2497  2080    20700.6683   111                  20790.1119    35187         
   2763  2231    14493.0593   112                  20790.1119    39161         
   3058  2522    20548.3610    87                  20790.1119    47547         
   4237  3663    18617.9012    90                  20790.1119    81358         
Elapsed time = 31.86 sec. (8645.62 ticks, tree = 49.04 MB, solutions = 0)
   5144  4512    infeasible                        20790.1119   112597         
   6291  4886    17202.8625   148                  20790.1119   129380         
   7341  6537    20717.0639   173                  20790.1119   199820         
   8272  6887    20764.4174   173                  20790.1119   214129         
   8501  8002    19931.1218   140                  20790.1119   276641         
   9356   255    19720.3693   156                  20790.1119   286758         
  10812   996    19636.7628   113                  20790.1119   328658         
  12289  1739    20690.6245   138                  20790.1119   366192         
  13759  4026    12915.5418   142                  20790.1119   468635         
  15054  4105    19558.0274   112                  20790.1119   470296         
Elapsed time = 103.78 sec. (24454.54 ticks, tree = 82.21 MB, solutions = 0)
  16434  4663    18059.4932   125                  20790.1119   488116         
  17761  6187     7383.5465   120                  20790.1119   548337         
  19019  7824    20306.3716   105                  20790.1119   630509         
  20271  7885     9781.4624   119                  20790.1119   633394         
  21428  8659   -20943.2957   187                  20790.1119   672951         
  22535  9343    10930.0911   122                  20790.1119   709996         
  23671 10060    20678.3968   142                  20790.1119   756209         
  24862 10536    20433.2155   110                  20790.1119   787771         
  26043 10447    17592.9371   110                  20790.1119   782363         
  27211 10886    11780.3840   166                  20790.1119   811157         
Elapsed time = 168.84 sec. (33997.26 ticks, tree = 192.44 MB, solutions = 0)
  28158 11254     5508.1117    91                  20790.1119   844200         
  29314 12223    20233.3175   160                  20790.1119   924738         
  30412 13593     7383.0652   125                  20790.1119  1046235         
  31640 13015    infeasible                        20790.1119   995253         
  32845 14283   -16670.0562   170                  20790.1119  1101274         
  34218 13918    20216.5355    69                  20790.1119  1066113         
  35492 14341    20187.4939    51                  20790.1119  1105366         
  36771 16434    infeasible                        20790.1119  1300472         
  38104 16245    20667.9229   103                  20790.1119  1279584         
  39378 17584     7037.4610   206                  20790.1119  1430422         
Elapsed time = 236.38 sec. (43540.66 ticks, tree = 350.60 MB, solutions = 0)
  40661 16507    infeasible                        20790.1119  1310591         
  41892 17727    10648.8967   149                  20790.1119  1452349         
  43046 17830    infeasible                        20790.1119  1466251         
  44070 18487    11032.5969   138                  20790.1119  1562769         
  44904 18654    infeasible                        20790.1119  1585059         
  45691 18907    infeasible                        20790.1119  1627478         

Cover cuts applied:  20
Flow cuts applied:  182
Mixed integer rounding cuts applied:  1

Root node processing (before b&c):
  Real time             =    6.86 sec. (5441.07 ticks)
Parallel b&c, 32 threads:
  Real time             =  230.19 sec. (44584.29 ticks)
  Sync time (average)   =    2.12 sec.
  Wait time (average)   =    0.38 sec.
                          ------------
Total (root+branch&cut) =  237.05 sec. (50025.36 ticks)


MIP - Deterministic time limit exceeded, no integer solution.
Current MIP best bound =  2.0790111944e+04 (gap is infinite)
Solution time =  237.09 sec.  Iterations = 1827783  Nodes = 45952 (20409)
Deterministic time = 50025.67 ticks  (211.00 ticks/sec)

CPLEX> CPLEX Error  1217: No solution exists.
No file written.
CPLEX> gap is infinite, so writing 0
Exporting results... 
